60
1 0 5
2 0 45
2 1 100
3 0 87
3 1 94
3 2 78
4 0 84
4 1 99
4 2 6
4 3 82
5 0 33
5 1 42
5 2 72
5 3 98
5 4 30
6 0 98
6 1 11
6 2 98
6 3 43
6 4 39
6 5 58
7 0 72
7 1 99
7 2 51
7 3 33
7 4 17
7 5 61
7 6 30
8 0 21
8 1 100
8 2 67
8 3 84
8 4 87
8 5 84
8 6 2
8 7 87
9 0 50
9 1 33
9 2 96
9 3 75
9 4 90
9 5 46
9 6 81
9 7 79
9 8 67
10 0 77
10 1 47
10 2 36
10 3 58
10 4 49
10 5 80
10 6 26
10 7 67
10 8 54
10 9 70
11 0 12
11 1 44
11 2 20
11 3 27
11 4 2
11 5 23
11 6 64
11 7 35
11 8 45
11 9 74
11 10 73
12 0 37
12 1 29
12 2 14
12 3 95
12 4 38
12 5 55
12 6 32
12 7 95
12 8 52
12 9 98
12 10 24
12 11 46
13 0 45
13 1 77
13 2 36
13 3 50
13 4 44
13 5 94
13 6 63
13 7 88
13 8 17
13 9 23
13 10 59
13 11 72
13 12 32
14 0 52
14 1 51
14 2 36
14 3 71
14 4 4
14 5 53
14 6 79
14 7 44
14 8 5
14 9 37
14 10 71
14 11 22
14 12 62
14 13 8
15 0 60
15 1 1
15 2 70
15 3 73
15 4 61
15 5 57
15 6 72
15 7 18
15 8 98
15 9 50
15 10 25
15 11 23
15 12 40
15 13 96
15 14 58
16 0 85
16 1 60
16 2 9
16 3 24
16 4 29
16 5 82
16 6 83
16 7 73
16 8 18
16 9 24
16 10 69
16 11 7
16 12 8
16 13 34
16 14 61
16 15 91
17 0 87
17 1 77
17 2 4
17 3 36
17 4 17
17 5 41
17 6 79
17 7 66
17 8 59
17 9 38
17 10 40
17 11 39
17 12 36
17 13 38
17 14 89
17 15 4
17 16 92
18 0 63
18 1 35
18 2 77
18 3 25
18 4 25
18 5 65
18 6 1
18 7 18
18 8 76
18 9 10
18 10 9
18 11 98
18 12 15
18 13 12
18 14 97
18 15 76
18 16 74
18 17 94
19 0 96
19 1 74
19 2 63
19 3 10
19 4 86
19 5 32
19 6 59
19 7 26
19 8 92
19 9 40
19 10 63
19 11 38
19 12 53
19 13 56
19 14 56
19 15 64
19 16 73
19 17 93
19 18 40
20 0 29
20 1 66
20 2 90
20 3 40
20 4 54
20 5 66
20 6 99
20 7 94
20 8 13
20 9 83
20 10 57
20 11 62
20 12 7
20 13 98
20 14 19
20 15 46
20 16 90
20 17 33
20 18 73
20 19 81
21 0 29
21 1 56
21 2 64
21 3 40
21 4 89
21 5 96
21 6 1
21 7 87
21 8 70
21 9 70
21 10 15
21 11 41
21 12 55
21 13 62
21 14 2
21 15 49
21 16 20
21 17 96
21 18 63
21 19 87
21 20 28
22 0 96
22 1 28
22 2 30
22 3 19
22 4 30
22 5 24
22 6 48
22 7 44
22 8 70
22 9 20
22 10 45
22 11 26
22 12 20
22 13 71
22 14 28
22 15 30
22 16 7
22 17 36
22 18 80
22 19 92
22 20 10
22 21 38
23 0 75
23 1 24
23 2 96
23 3 95
23 4 51
23 5 97
23 6 78
23 7 47
23 8 43
23 9 83
23 10 13
23 11 47
23 12 31
23 13 88
23 14 12
23 15 98
23 16 54
23 17 22
23 18 15
23 19 51
23 20 7
23 21 80
23 22 76
24 0 94
24 1 10
24 2 37
24 3 38
24 4 99
24 5 16
24 6 68
24 7 12
24 8 17
24 9 12
24 10 62
24 11 71
24 12 23
24 13 6
24 14 87
24 15 39
24 16 46
24 17 28
24 18 9
24 19 35
24 20 65
24 21 73
24 22 93
24 23 84
25 0 28
25 1 64
25 2 36
25 3 33
25 4 31
25 5 26
25 6 91
25 7 7
25 8 79
25 9 83
25 10 7
25 11 10
25 12 94
25 13 29
25 14 79
25 15 60
25 16 56
25 17 32
25 18 81
25 19 82
25 20 93
25 21 72
25 22 45
25 23 44
25 24 44
26 0 19
26 1 83
26 2 73
26 3 77
26 4 13
26 5 78
26 6 99
26 7 19
26 8 88
26 9 6
26 10 22
26 11 46
26 12 56
26 13 30
26 14 83
26 15 29
26 16 52
26 17 5
26 18 2
26 19 37
26 20 95
26 21 90
26 22 96
26 23 48
26 24 22
26 25 18
27 0 7
27 1 6
27 2 95
27 3 19
27 4 88
27 5 46
27 6 95
27 7 67
27 8 45
27 9 52
27 10 45
27 11 90
27 12 10
27 13 36
27 14 35
27 15 97
27 16 7
27 17 45
27 18 36
27 19 81
27 20 48
27 21 38
27 22 17
27 23 3
27 24 40
27 25 91
27 26 23
28 0 89
28 1 11
28 2 14
28 3 60
28 4 77
28 5 91
28 6 97
28 7 4
28 8 91
28 9 89
28 10 21
28 11 25
28 12 50
28 13 61
28 14 83
28 15 89
28 16 18
28 17 65
28 18 43
28 19 3
28 20 63
28 21 32
28 22 85
28 23 81
28 24 84
28 25 14
28 26 37
28 27 66
29 0 17
29 1 92
29 2 10
29 3 44
29 4 30
29 5 33
29 6 46
29 7 11
29 8 68
29 9 45
29 10 78
29 11 98
29 12 18
29 13 72
29 14 45
29 15 62
29 16 90
29 17 18
29 18 21
29 19 87
29 20 38
29 21 97
29 22 46
29 23 69
29 24 81
29 25 45
29 26 68
29 27 70
29 28 74
30 0 46
30 1 30
30 2 63
30 3 54
30 4 54
30 5 78
30 6 5
30 7 71
30 8 19
30 9 48
30 10 14
30 11 50
30 12 31
30 13 75
30 14 38
30 15 72
30 16 67
30 17 40
30 18 31
30 19 49
30 20 86
30 21 19
30 22 87
30 23 52
30 24 11
30 25 30
30 26 81
30 27 1
30 28 95
30 29 79
31 0 44
31 1 19
31 2 57
31 3 41
31 4 43
31 5 46
31 6 46
31 7 52
31 8 56
31 9 15
31 10 46
31 11 74
31 12 73
31 13 71
31 14 56
31 15 71
31 16 35
31 17 80
31 18 94
31 19 13
31 20 22
31 21 42
31 22 4
31 23 70
31 24 39
31 25 26
31 26 78
31 27 4
31 28 51
31 29 77
31 30 19
32 0 34
32 1 86
32 2 67
32 3 100
32 4 49
32 5 97
32 6 95
32 7 95
32 8 98
32 9 44
32 10 52
32 11 1
32 12 69
32 13 52
32 14 4
32 15 60
32 16 47
32 17 46
32 18 67
32 19 58
32 20 99
32 21 78
32 22 69
32 23 64
32 24 52
32 25 82
32 26 34
32 27 24
32 28 37
32 29 38
32 30 16
32 31 33
33 0 14
33 1 20
33 2 80
33 3 53
33 4 28
33 5 67
33 6 14
33 7 35
33 8 38
33 9 100
33 10 1
33 11 73
33 12 15
33 13 58
33 14 97
33 15 8
33 16 20
33 17 61
33 18 94
33 19 36
33 20 2
33 21 87
33 22 63
33 23 9
33 24 64
33 25 40
33 26 97
33 27 21
33 28 2
33 29 47
33 30 13
33 31 24
33 32 8
34 0 99
34 1 78
34 2 15
34 3 95
34 4 36
34 5 64
34 6 88
34 7 85
34 8 32
34 9 45
34 10 41
34 11 61
34 12 40
34 13 3
34 14 80
34 15 87
34 16 92
34 17 2
34 18 71
34 19 32
34 20 72
34 21 25
34 22 19
34 23 69
34 24 3
34 25 23
34 26 80
34 27 16
34 28 16
34 29 93
34 30 38
34 31 56
34 32 95
34 33 80
35 0 94
35 1 43
35 2 16
35 3 96
35 4 64
35 5 87
35 6 15
35 7 77
35 8 68
35 9 76
35 10 71
35 11 31
35 12 62
35 13 63
35 14 67
35 15 46
35 16 57
35 17 51
35 18 83
35 19 68
35 20 1
35 21 33
35 22 28
35 23 50
35 24 38
35 25 81
35 26 5
35 27 54
35 28 74
35 29 83
35 30 90
35 31 43
35 32 98
35 33 83
35 34 41
36 0 96
36 1 43
36 2 64
36 3 84
36 4 41
36 5 87
36 6 78
36 7 47
36 8 77
36 9 38
36 10 23
36 11 22
36 12 46
36 13 39
36 14 7
36 15 87
36 16 56
36 17 83
36 18 69
36 19 23
36 20 85
36 21 48
36 22 20
36 23 91
36 24 4
36 25 72
36 26 48
36 27 67
36 28 4
36 29 26
36 30 89
36 31 58
36 32 18
36 33 71
36 34 55
36 35 19
37 0 66
37 1 97
37 2 85
37 3 71
37 4 71
37 5 78
37 6 42
37 7 84
37 8 15
37 9 93
37 10 82
37 11 57
37 12 46
37 13 3
37 14 73
37 15 41
37 16 44
37 17 76
37 18 27
37 19 52
37 20 4
37 21 5
37 22 79
37 23 100
37 24 18
37 25 56
37 26 34
37 27 15
37 28 30
37 29 49
37 30 52
37 31 41
37 32 14
37 33 50
37 34 48
37 35 48
37 36 15
38 0 29
38 1 36
38 2 70
38 3 12
38 4 25
38 5 27
38 6 66
38 7 28
38 8 98
38 9 69
38 10 67
38 11 93
38 12 84
38 13 98
38 14 66
38 15 9
38 16 68
38 17 15
38 18 45
38 19 3
38 20 43
38 21 33
38 22 55
38 23 53
38 24 26
38 25 43
38 26 99
38 27 19
38 28 44
38 29 95
38 30 74
38 31 26
38 32 9
38 33 3
38 34 74
38 35 73
38 36 56
38 37 4
39 0 73
39 1 65
39 2 98
39 3 47
39 4 13
39 5 90
39 6 25
39 7 77
39 8 95
39 9 5
39 10 72
39 11 47
39 12 30
39 13 77
39 14 100
39 15 81
39 16 5
39 17 2
39 18 85
39 19 54
39 20 65
39 21 22
39 22 9
39 23 71
39 24 25
39 25 73
39 26 93
39 27 62
39 28 58
39 29 58
39 30 17
39 31 29
39 32 18
39 33 32
39 34 13
39 35 4
39 36 7
39 37 26
39 38 33
40 0 95
40 1 77
40 2 56
40 3 31
40 4 58
40 5 49
40 6 99
40 7 96
40 8 99
40 9 64
40 10 27
40 11 35
40 12 90
40 13 20
40 14 20
40 15 3
40 16 78
40 17 50
40 18 20
40 19 6
40 20 95
40 21 41
40 22 88
40 23 36
40 24 10
40 25 10
40 26 64
40 27 27
40 28 84
40 29 80
40 30 61
40 31 13
40 32 11
40 33 20
40 34 37
40 35 54
40 36 64
40 37 45
40 38 14
40 39 42
41 0 66
41 1 98
41 2 52
41 3 6
41 4 71
41 5 45
41 6 1
41 7 3
41 8 18
41 9 61
41 10 68
41 11 14
41 12 89
41 13 92
41 14 87
41 15 32
41 16 87
41 17 20
41 18 86
41 19 85
41 20 21
41 21 64
41 22 71
41 23 32
41 24 54
41 25 88
41 26 81
41 27 36
41 28 56
41 29 10
41 30 85
41 31 84
41 32 70
41 33 30
41 34 17
41 35 35
41 36 78
41 37 17
41 38 87
41 39 88
41 40 31
42 0 24
42 1 90
42 2 14
42 3 72
42 4 21
42 5 21
42 6 100
42 7 76
42 8 69
42 9 61
42 10 88
42 11 78
42 12 76
42 13 83
42 14 9
42 15 61
42 16 95
42 17 17
42 18 48
42 19 38
42 20 68
42 21 42
42 22 95
42 23 41
42 24 27
42 25 18
42 26 57
42 27 90
42 28 93
42 29 72
42 30 39
42 31 35
42 32 48
42 33 80
42 34 24
42 35 59
42 36 66
42 37 43
42 38 11
42 39 8
42 40 19
42 41 30
43 0 81
43 1 86
43 2 11
43 3 21
43 4 5
43 5 18
43 6 94
43 7 9
43 8 28
43 9 69
43 10 72
43 11 19
43 12 61
43 13 92
43 14 94
43 15 49
43 16 97
43 17 29
43 18 3
43 19 66
43 20 23
43 21 71
43 22 78
43 23 85
43 24 75
43 25 89
43 26 88
43 27 28
43 28 92
43 29 66
43 30 65
43 31 48
43 32 41
43 33 90
43 34 33
43 35 40
43 36 18
43 37 2
43 38 68
43 39 100
43 40 72
43 41 4
43 42 87
44 0 94
44 1 76
44 2 66
44 3 65
44 4 40
44 5 61
44 6 94
44 7 43
44 8 34
44 9 87
44 10 38
44 11 82
44 12 52
44 13 100
44 14 68
44 15 59
44 16 18
44 17 25
44 18 33
44 19 26
44 20 32
44 21 73
44 22 82
44 23 66
44 24 75
44 25 68
44 26 22
44 27 21
44 28 51
44 29 24
44 30 34
44 31 89
44 32 31
44 33 31
44 34 69
44 35 90
44 36 100
44 37 26
44 38 7
44 39 62
44 40 37
44 41 48
44 42 39
44 43 46
45 0 66
45 1 26
45 2 7
45 3 54
45 4 59
45 5 33
45 6 27
45 7 33
45 8 94
45 9 100
45 10 48
45 11 82
45 12 73
45 13 90
45 14 59
45 15 67
45 16 81
45 17 66
45 18 27
45 19 49
45 20 21
45 21 5
45 22 15
45 23 29
45 24 57
45 25 28
45 26 53
45 27 55
45 28 72
45 29 83
45 30 17
45 31 63
45 32 91
45 33 65
45 34 66
45 35 39
45 36 46
45 37 72
45 38 41
45 39 23
45 40 86
45 41 46
45 42 5
45 43 97
45 44 41
46 0 24
46 1 5
46 2 24
46 3 8
46 4 12
46 5 67
46 6 28
46 7 21
46 8 52
46 9 65
46 10 42
46 11 98
46 12 59
46 13 17
46 14 53
46 15 13
46 16 19
46 17 98
46 18 21
46 19 9
46 20 1
46 21 91
46 22 65
46 23 59
46 24 21
46 25 90
46 26 25
46 27 40
46 28 39
46 29 44
46 30 55
46 31 80
46 32 9
46 33 4
46 34 100
46 35 91
46 36 91
46 37 98
46 38 64
46 39 95
46 40 100
46 41 69
46 42 78
46 43 10
46 44 49
46 45 30
47 0 12
47 1 50
47 2 25
47 3 33
47 4 97
47 5 65
47 6 87
47 7 56
47 8 57
47 9 6
47 10 74
47 11 44
47 12 57
47 13 9
47 14 90
47 15 69
47 16 23
47 17 31
47 18 68
47 19 97
47 20 87
47 21 68
47 22 49
47 23 63
47 24 66
47 25 56
47 26 32
47 27 4
47 28 69
47 29 20
47 30 67
47 31 4
47 32 8
47 33 35
47 34 4
47 35 34
47 36 48
47 37 3
47 38 29
47 39 6
47 40 4
47 41 65
47 42 30
47 43 73
47 44 10
47 45 7
47 46 91
48 0 38
48 1 80
48 2 13
48 3 2
48 4 56
48 5 54
48 6 100
48 7 28
48 8 41
48 9 2
48 10 5
48 11 84
48 12 18
48 13 15
48 14 39
48 15 100
48 16 79
48 17 22
48 18 15
48 19 79
48 20 20
48 21 97
48 22 8
48 23 81
48 24 94
48 25 52
48 26 21
48 27 83
48 28 88
48 29 44
48 30 47
48 31 3
48 32 4
48 33 9
48 34 65
48 35 82
48 36 29
48 37 28
48 38 7
48 39 65
48 40 94
48 41 91
48 42 73
48 43 32
48 44 69
48 45 82
48 46 96
48 47 54
49 0 56
49 1 35
49 2 78
49 3 88
49 4 54
49 5 28
49 6 48
49 7 34
49 8 24
49 9 92
49 10 10
49 11 14
49 12 78
49 13 75
49 14 87
49 15 47
49 16 55
49 17 86
49 18 85
49 19 35
49 20 81
49 21 98
49 22 15
49 23 78
49 24 4
49 25 95
49 26 61
49 27 82
49 28 65
49 29 84
49 30 85
49 31 38
49 32 45
49 33 16
49 34 94
49 35 72
49 36 85
49 37 77
49 38 14
49 39 7
49 40 91
49 41 52
49 42 58
49 43 78
49 44 55
49 45 67
49 46 68
49 47 93
49 48 56
50 0 71
50 1 71
50 2 39
50 3 30
50 4 92
50 5 89
50 6 59
50 7 13
50 8 5
50 9 80
50 10 65
50 11 5
50 12 84
50 13 4
50 14 58
50 15 1
50 16 15
50 17 50
50 18 69
50 19 88
50 20 19
50 21 59
50 22 37
50 23 21
50 24 85
50 25 21
50 26 100
50 27 92
50 28 25
50 29 52
50 30 55
50 31 87
50 32 99
50 33 63
50 34 13
50 35 93
50 36 80
50 37 82
50 38 64
50 39 67
50 40 37
50 41 91
50 42 21
50 43 20
50 44 73
50 45 91
50 46 6
50 47 65
50 48 49
50 49 98
51 0 98
51 1 7
51 2 61
51 3 42
51 4 71
51 5 11
51 6 66
51 7 29
51 8 63
51 9 62
51 10 79
51 11 67
51 12 76
51 13 87
51 14 73
51 15 82
51 16 3
51 17 23
51 18 55
51 19 66
51 20 3
51 21 51
51 22 18
51 23 51
51 24 96
51 25 15
51 26 71
51 27 73
51 28 50
51 29 7
51 30 100
51 31 89
51 32 59
51 33 90
51 34 32
51 35 63
51 36 55
51 37 73
51 38 76
51 39 21
51 40 96
51 41 85
51 42 83
51 43 46
51 44 24
51 45 92
51 46 47
51 47 71
51 48 80
51 49 53
51 50 29
52 0 84
52 1 30
52 2 36
52 3 82
52 4 44
52 5 29
52 6 5
52 7 11
52 8 99
52 9 28
52 10 65
52 11 100
52 12 18
52 13 15
52 14 36
52 15 74
52 16 12
52 17 25
52 18 71
52 19 94
52 20 90
52 21 70
52 22 62
52 23 98
52 24 66
52 25 76
52 26 75
52 27 28
52 28 37
52 29 25
52 30 32
52 31 23
52 32 79
52 33 37
52 34 16
52 35 55
52 36 32
52 37 43
52 38 62
52 39 33
52 40 84
52 41 34
52 42 85
52 43 22
52 44 63
52 45 87
52 46 32
52 47 33
52 48 1
52 49 99
52 50 64
52 51 93
53 0 23
53 1 85
53 2 16
53 3 88
53 4 90
53 5 17
53 6 92
53 7 55
53 8 90
53 9 22
53 10 70
53 11 55
53 12 43
53 13 40
53 14 48
53 15 48
53 16 87
53 17 37
53 18 50
53 19 72
53 20 50
53 21 13
53 22 64
53 23 72
53 24 28
53 25 45
53 26 96
53 27 49
53 28 9
53 29 67
53 30 43
53 31 21
53 32 40
53 33 60
53 34 39
53 35 10
53 36 9
53 37 25
53 38 15
53 39 98
53 40 85
53 41 47
53 42 76
53 43 33
53 44 54
53 45 74
53 46 95
53 47 49
53 48 37
53 49 74
53 50 69
53 51 51
53 52 67
54 0 48
54 1 87
54 2 80
54 3 77
54 4 95
54 5 13
54 6 46
54 7 24
54 8 79
54 9 77
54 10 2
54 11 37
54 12 26
54 13 25
54 14 100
54 15 80
54 16 61
54 17 78
54 18 46
54 19 59
54 20 61
54 21 99
54 22 45
54 23 18
54 24 79
54 25 67
54 26 12
54 27 5
54 28 76
54 29 95
54 30 70
54 31 89
54 32 52
54 33 72
54 34 91
54 35 82
54 36 74
54 37 83
54 38 23
54 39 80
54 40 39
54 41 51
54 42 18
54 43 25
54 44 17
54 45 15
54 46 69
54 47 69
54 48 63
54 49 16
54 50 95
54 51 78
54 52 99
54 53 71
55 0 51
55 1 9
55 2 96
55 3 56
55 4 47
55 5 49
55 6 11
55 7 20
55 8 99
55 9 3
55 10 61
55 11 6
55 12 53
55 13 62
55 14 39
55 15 53
55 16 46
55 17 100
55 18 96
55 19 4
55 20 6
55 21 68
55 22 58
55 23 37
55 24 92
55 25 88
55 26 36
55 27 5
55 28 43
55 29 71
55 30 62
55 31 44
55 32 69
55 33 8
55 34 53
55 35 86
55 36 12
55 37 4
55 38 83
55 39 92
55 40 65
55 41 60
55 42 21
55 43 89
55 44 9
55 45 19
55 46 55
55 47 65
55 48 38
55 49 36
55 50 32
55 51 73
55 52 43
55 53 31
55 54 56
56 0 47
56 1 98
56 2 42
56 3 40
56 4 5
56 5 78
56 6 77
56 7 3
56 8 33
56 9 73
56 10 47
56 11 58
56 12 43
56 13 5
56 14 22
56 15 27
56 16 58
56 17 44
56 18 23
56 19 79
56 20 73
56 21 90
56 22 84
56 23 90
56 24 92
56 25 68
56 26 8
56 27 53
56 28 35
56 29 42
56 30 14
56 31 94
56 32 66
56 33 59
56 34 61
56 35 83
56 36 97
56 37 68
56 38 79
56 39 26
56 40 56
56 41 77
56 42 48
56 43 89
56 44 27
56 45 51
56 46 10
56 47 94
56 48 1
56 49 56
56 50 6
56 51 77
56 52 6
56 53 1
56 54 56
56 55 3
57 0 83
57 1 42
57 2 49
57 3 80
57 4 42
57 5 39
57 6 94
57 7 18
57 8 25
57 9 86
57 10 50
57 11 12
57 12 25
57 13 55
57 14 49
57 15 69
57 16 74
57 17 28
57 18 61
57 19 85
57 20 80
57 21 94
57 22 76
57 23 47
57 24 85
57 25 47
57 26 10
57 27 39
57 28 66
57 29 15
57 30 41
57 31 34
57 32 96
57 33 97
57 34 40
57 35 42
57 36 68
57 37 85
57 38 67
57 39 27
57 40 5
57 41 12
57 42 22
57 43 1
57 44 40
57 45 43
57 46 89
57 47 98
57 48 32
57 49 98
57 50 10
57 51 34
57 52 40
57 53 89
57 54 66
57 55 48
57 56 92
58 0 87
58 1 71
58 2 62
58 3 7
58 4 64
58 5 94
58 6 98
58 7 49
58 8 87
58 9 55
58 10 64
58 11 44
58 12 38
58 13 88
58 14 68
58 15 76
58 16 90
58 17 42
58 18 45
58 19 35
58 20 86
58 21 69
58 22 96
58 23 1
58 24 72
58 25 30
58 26 70
58 27 69
58 28 93
58 29 4
58 30 49
58 31 65
58 32 58
58 33 96
58 34 10
58 35 99
58 36 27
58 37 60
58 38 72
58 39 51
58 40 78
58 41 100
58 42 57
58 43 2
58 44 48
58 45 13
58 46 24
58 47 37
58 48 79
58 49 69
58 50 48
58 51 90
58 52 86
58 53 68
58 54 58
58 55 17
58 56 41
58 57 7
59 0 57
59 1 4
59 2 51
59 3 35
59 4 86
59 5 46
59 6 44
59 7 2
59 8 1
59 9 65
59 10 22
59 11 14
59 12 87
59 13 49
59 14 32
59 15 54
59 16 11
59 17 17
59 18 56
59 19 36
59 20 3
59 21 60
59 22 35
59 23 92
59 24 14
59 25 10
59 26 76
59 27 17
59 28 74
59 29 23
59 30 92
59 31 22
59 32 82
59 33 91
59 34 94
59 35 66
59 36 63
59 37 20
59 38 24
59 39 63
59 40 99
59 41 29
59 42 98
59 43 2
59 44 18
59 45 66
59 46 7
59 47 8
59 48 84
59 49 41
59 50 77
59 51 33
59 52 32
59 53 26
59 54 6
59 55 75
59 56 38
59 57 66
59 58 16
